(declare-const tmp Int)
(declare-const term_to_project_onto2_integralized Int)
(declare-const term_to_project_onto0_integralized Int)
(declare-const term_to_project_onto1_integralized Int)
(declare-const term_to_project_onto_integralized Int)
(assert (exists
         ((uninterp?1?1 Int) (uninterp?2?2 Int) (|tmp'?3?3| Int)
            (|b'?4?4| Int) (|a'?5?5| Int) (|counter'?6?6| Int) (q?7?7 Int)
            (r?8?8 Int) (a?9?9 Int) (b?10?10 Int) (counter?11?11 Int)
            (x?12?12 Int) (y?13?13 Int))
         (and (<= (- q?7?7) 0) (<= (+ (- r?8?8) 1) 0) (<= (+ (- a?9?9) 1) 0)
                (<= (+ (- b?10?10) 1) 0) (<= (+ (- counter?11?11) 1) 0)
                (<= (+ (- y?13?13) 1) 0) (<= (+ counter?11?11 -9) 0)
                (= (+ b?10?10 (- uninterp?2?2)) 0)
                (= (+ x?12?12 (- r?8?8) (- uninterp?1?1)) 0) (<= (- r?8?8) 0)
                (<= (+ (* 2 b?10?10) (- r?8?8)) 0)
                (<= (+ (* 2 uninterp?2?2) (- r?8?8)) 0)
                (= (+ |tmp'?3?3| (- counter?11?11)) 0)
                (= (+ |b'?4?4| (* -2 b?10?10)) 0)
                (= (+ |a'?5?5| (* -2 a?9?9)) 0)
                (= (+ |counter'?6?6| (- counter?11?11) -1) 0)
                (<= (- uninterp?1?1) 0) (<= (+ q?7?7 (- uninterp?1?1)) 0)
                (<= (+ 1 (- uninterp?2?2)) 0)
                (<= (+ a?9?9 (- uninterp?2?2)) 0)
                (<= (+ y?13?13 (- uninterp?2?2)) 0)
                (= (+ term_to_project_onto2_integralized
                        (- (+ |counter'?6?6| (- counter?11?11)))) 0)
                (= (+ term_to_project_onto1_integralized
                        (- (+ |a'?5?5| (- a?9?9)))) 0)
                (= (+ term_to_project_onto0_integralized
                        (- (+ |b'?4?4| (- b?10?10)))) 0)
                (= (+ term_to_project_onto_integralized
                        (- (+ |tmp'?3?3| (- tmp)))) 0))))